db/data/2773920754139129404465156541333326427.z3.out
sat
-------------------
1588.013028995
